Route #1: 1 48 128 54 124 120 21 51 79 1
Route #2 1 87 89 114 28 83 90 1
Route #3 1 16 67 65 104 76 94 92 4 1
Route #4 1 91 45 2 60 19 1
Route #5 1 24 61 36 78 26 85 40 1
Route #6 1 44 31 63 57 58 14 8 1
Route #7 1 20 55 23 46 30 7 112 1
Route #8 1 122 95 88 81 69 99 5 116 1
Route #9 1 82 37 108 129 123 1
Route #10 1 118 15 126 84 110 52 1
Route #11 1 32 98 70 121 9 43 100 1
Route #12 1 38 74 50 72 127 27 1
Route #13 1 109 101 73 113 115 33 1
Route #14 1 17 13 97 96 117 93 11 80 77 105 1
Route #15 1 66 106 12 86 62 56 41 42 1
Route #16 1 47 34 22 35 3 49 59 102 18 111 103 1
Route #17 1 6 107 71 75 29 119 39 25 1
Route #18 1 53 64 10 125 68 1
Cost: 30781